
Gurobi 9.1.1 (linux64, gurobi_cl) logging started Fri Nov 19 17:14:11 2021

Academic license - for non-commercial use only - expires 2021-12-06
Using license file /home/max/gurobi.lic
Set parameter LogFile to value gurobi.log
